50
23924

632 226
978 118
79 758
656 989
550 683
950 701
669 996
903 454
1000 618
577 961
887 353
254 786
80 52
377 738
252 758
288 114
872 7
95 897
950 315
258 705
657 44
752 754
118 137
848 457
390 667
539 417
908 674
374 897
602 25
677 147
859 731
43 760
714 431
634 518
493 607
703 822
59 574
316 12
875 404
215 217
267 723
575 800
41 528
598 953
548 467
492 420
766 890
146 7
693 180
108 692
